unsat
(:max-memory         18.53
 :memory             18.43
 :nlsat-arith-var    4
 :nlsat-atoms        26
 :nlsat-bool-var     2
 :nlsat-clauses      21
 :nlsat-conflicts    7
 :nlsat-propagations 50
 :nlsat-stages       7
 :num-allocs         60194
 :rlimit-count       4757
 :time               0.00
 :total-time         0.02)
